(set-logic QF_FPBV)
(set-option :produce-models true)
(set-info :source |Random FP created by PyMPF|)
(set-info :category random)
(set-info :status sat)
;; fp.from.ubv(BitVec 128)
(declare-const x (_ BitVec 128))
(assert (bvule x #b00011001010000011000011101011001100000110111100011001001000100110010110111000111100001100111101101010110111011101011011001010010))
;; x should be 33570944407719174297882844292193367634
(declare-const r Float32)
(assert (= r ((_ to_fp_unsigned 8 24) RTZ x)))
(assert (fp.leq r (fp #b0 #b11111011 #b10010100000110000111010)))
(check-sat)
(exit)
